(declare-const havoc Int)
(declare-const |K:47:48:51:54| Int)
(declare-const |havoc:4| Int)
(declare-const |x':41:49:52:55| Int)
(declare-const |y':42:50:53:56| Int)
(declare-const |havoc:2| Int)
(assert (and (<= (- havoc) 0) (<= (+ (- |havoc:2|) havoc) 0)
               (< (+ (- |havoc:4|) |havoc:2|) 0)
               (or (not (<= (- |K:47:48:51:54|) 0))
                     (= (+ |x':41:49:52:55| (- |K:47:48:51:54|) (- havoc)) 0))
               (or (not (<= (- |K:47:48:51:54|) 0))
                     (<= (+ |y':42:50:53:56| (- |K:47:48:51:54|)
                              (- |havoc:2|)) 0))
               (or (not (<= (- |K:47:48:51:54|) 0))
                     (<= (+ (- |y':42:50:53:56|) |havoc:2|) 0))
               (or (and (= |K:47:48:51:54| 0)
                          (= (+ (- |y':42:50:53:56|) |havoc:2|) 0)
                          (= (+ (- |x':41:49:52:55|) havoc) 0))
                     (and (<= (+ (- |K:47:48:51:54|) 1) 0)
                            (<= (+ (- |havoc:4|) havoc 1) 0)
                            (<= (- |havoc:2|) 0) (<= (- havoc) 0)
                            (<= (+ |x':41:49:52:55| (- |havoc:4|)) 0)
                            (<= (+ (- |y':42:50:53:56|) 1) 0)
                            (<= (+ (- |x':41:49:52:55|) 1) 0)))
               (<= (- |K:47:48:51:54|) 0) (<= (- |x':41:49:52:55|) 0)
               (< (- |havoc:4|) 0) (<= (- |y':42:50:53:56|) 0)
               (<= (+ (- |x':41:49:52:55|) |havoc:4|) 0)
               (not (= (+ |y':42:50:53:56| (- |havoc:4|)) 0))))
(check-sat)
